Running HiGHS 1.12.0 (git hash: n/a): Copyright (c) 2025 HiGHS under MIT licence terms
Set option solver to "simplex"
Set option parallel to "off"
Set option time_limit to 1200
Set option user_bound_scale to -18
Set option log_file to "HiGHS.log"
Set option mip_rel_gap to 0
MIP mas76 has 12 rows; 151 cols; 1640 nonzeros; 150 integer variables (150 binary)
Assessing costs and bounds after applying user_bound_scale option value of -18
Coefficient ranges:
  Matrix  [4e-06, 1e+00]
  Cost    [4e-11, 1e+00]
  Bound   [1e+00, 4e+06]
  RHS     [6e-05, 6e-01]
WARNING: User-scaled problem has some excessively small costs
WARNING: User-scaled problem has some excessively large column bounds
WARNING: User-scaled problem has some excessively small row bounds
WARNING:    Consider setting the user_bound_scale option to -20
Presolving model
12 rows, 150 cols, 1639 nonzeros  0s
12 rows, 148 cols, 1615 nonzeros  0s
Presolve reductions: rows 12(-0); columns 148(-3); nonzeros 1615(-25) 

Solving MIP model with:
   12 rows
   148 cols (145 binary, 2 integer, 0 implied int., 1 continuous, 0 domain fixed)
   1615 nonzeros

Src: B => Branching; C => Central rounding; F => Feasibility pump; H => Heuristic;
     I => Shifting; J => Feasibility jump; L => Sub-MIP; P => Empty MIP; R => Randomized rounding;
     S => Solve LP; T => Evaluate node; U => Unbounded; X => User solution; Y => HiGHS solution;
     Z => ZI Round; l => Trivial lower; p => Trivial point; u => Trivial upper; z => Trivial zero

        Nodes      |    B&B Tree     |            Objective Bounds              |  Dynamic Constraints |       Work      
Src  Proc. InQueue |  Leaves   Expl. | BestBound       BestSol              Gap |   Cuts   InLp Confl. | LpIters     Time

 J       0       0         0   0.00%   -inf            0.4651241846       Large        0      0      0         0     0.0s
 R       0       0         0   0.00%   0.1483684679    0.168186141       11.78%        0      0      0        49     0.0s
 L       0       0         0   0.00%   0.1488863311    0.1526071706       2.44%      754     24      6       158     0.4s

53.7% inactive integer columns, restarting
Model after restart has 12 rows, 69 cols (68 bin., 0 int., 0 impl., 1 cont., 0 dom.fix.), and 676 nonzeros

         0       0         0   0.00%   0.1488872006    0.1526071706       2.44%       13      0      0      1927     0.5s
         0       0         0   0.00%   0.1488872006    0.1526071706       2.44%       13     13      4      1946     0.5s

Restarting search from the root node
Model after restart has 12 rows, 68 cols (67 bin., 0 int., 0 impl., 1 cont., 0 dom.fix.), and 664 nonzeros

      2072       0         0   0.00%   0.1490262985    0.1526071706       2.35%       14      0      0     23146     1.9s
      2072       0         0   0.00%   0.1490262985    0.1526071706       2.35%       14      5      2     23156     1.9s
 L    2072       0         0   0.00%   0.1490642924    0.1526071706       2.32%      212     36      2     24570     2.5s
     16345     972      6611  26.43%   0.1490809834    0.1526071706       2.31%     1463     16   9972    113798     7.5s
     28941    1574     12586  34.38%   0.1493235272    0.1526071706       2.15%     1553      9   9952    190061    12.5s
     41488    2060     18593  42.20%   0.1493840364    0.1526071706       2.11%     1355      3   9719    269272    17.5s
 L   49758    2334     22576  47.18%   0.1494689341    0.1526071706       2.06%     1333     18   9791    325212    21.4s
     60503    2606     27786  55.33%   0.1495731196    0.1526071706       1.99%     1409      7   9785    399711    26.4s
     71221    2820     33017  62.29%   0.1496532595    0.1526071706       1.94%     1299     10   9720    470669    31.4s
     81467    3003     38022  67.84%   0.1497457063    0.1526071706       1.88%     1211     12   9629    541805    36.4s
 L   88130    3064     41304  73.76%   0.1498143345    0.1526071706       1.83%     1139     12   9695    586973    39.6s
     99391    3197     46844  79.49%   0.1499509105    0.1526071706       1.74%     1381     15   9854    663658    44.6s
    109662    3233     51933  84.17%   0.1500726214    0.1526071706       1.66%     1263     11   9705    735601    49.6s
    120309    3102     57285  91.56%   0.1502484924    0.1526071706       1.55%     1250     14   9831    808669    54.6s
    129643    2881     62032  94.89%   0.1505088082    0.1526071706       1.38%     1213      9   9756    875736    59.6s

        Nodes      |    B&B Tree     |            Objective Bounds              |  Dynamic Constraints |       Work      
Src  Proc. InQueue |  Leaves   Expl. | BestBound       BestSol              Gap |   Cuts   InLp Confl. | LpIters     Time

    137216    2453     66023  97.01%   0.1508257545    0.1526071706       1.17%     1116     11   7349    934864    64.6s
    142746    1693     69160  98.50%   0.1512874613    0.1526071706       0.86%     1089     11   2953    984524    69.6s
 L  143877    1428     69855  98.84%   0.1514247905    0.1526061707       0.77%     1134     10   2556    995308    70.8s
    146752       0     72004 100.00%   0.1526061707    0.1526061707       0.00%     1222      6   1161     1030k    74.4s

Solving report
  Model             mas76
  Status            Optimal
  Primal bound      0.152606170723
  Dual bound        0.152606170723
  Gap               0%
  P-D integral      1.33530671525
  Solution status   feasible
                    0.152606170723 (objective)
                    0 (bound viol.)
                    0 (int. viol.)
                    0 (row viol.)
  Timing            74.36
  Max sub-MIP depth 4
  Nodes             146752
  Repair LPs        0
  LP iterations     1030681
                    7820 (strong br.)
                    53196 (separation)
                    52222 (heuristics)
Model name          : mas76
Model status        : Optimal
Simplex   iterations: 1030681
IPM       iterations: -1
Crossover iterations: -1
PDLP      iterations: -1
QP ASM    iterations: -1
Objective value     :  1.5260617072e-01
HiGHS run time      :         74.37
WARNING: Solution optimality conditions: After removing user scaling
    max             0                                  integrality violations     (tolerance = 1e-06)
num/max      1 /    0.262 (relative      1 / 1.67e-06) primal infeasibilities     (tolerance = 1e-06)
After solving the user-scaled model, the unscaled solution has objective value 40004.792018
WARNING: User scaled problem solved to optimality, but unscaled solution does not satisfy feasibilty and optimality tolerances
